p cnf 119 383
c t mc
2 1 0
2 -1 0
6 -4 0
6 5 0
4 -5 -6 0
-7 -3 0
-7 6 0
3 -6 7 0
-2 7 -8 0
2 -7 -8 0
-2 -7 8 0
2 7 8 0
11 -9 0
11 10 0
9 -10 -11 0
-11 -6 -12 0
11 6 -12 0
-11 6 12 0
11 -6 12 0
-12 -13 -14 0
12 13 -14 0
-12 13 14 0
12 -13 14 0
-14 -11 -15 0
14 11 -15 0
-14 11 15 0
14 -11 15 0
-16 8 0
-16 -15 0
-8 15 16 0
-19 -17 0
-19 -18 0
17 18 19 0
-21 19 0
-21 20 0
-19 -20 21 0
-23 -21 0
-23 -22 0
21 22 23 0
-17 23 -24 0
17 -23 -24 0
-17 -23 24 0
17 23 24 0
27 7 0
27 -26 0
-7 26 -27 0
-28 25 0
-28 27 0
-25 -27 28 0
-29 -28 0
-29 -28 0
28 29 0
30 29 0
30 -4 0
-29 4 -30 0
-31 30 0
-31 -22 0
-30 22 31 0
-24 31 -32 0
24 -31 -32 0
-24 -31 32 0
24 31 32 0
-16 32 -33 0
16 -32 -33 0
-16 -32 33 0
16 32 33 0
35 -2 0
35 3 0
2 -3 -35 0
-36 34 0
-36 -35 0
-34 35 36 0
37 13 0
37 -13 0
-39 38 0
-39 26 0
-38 -26 39 0
40 37 0
40 39 0
-37 -39 -40 0
-41 40 0
-41 5 0
-40 -5 41 0
-42 -36 0
-42 41 0
36 -41 42 0
-33 42 -43 0
33 -42 -43 0
-33 -42 43 0
33 42 43 0
3 4 -44 0
-3 -4 -44 0
3 -4 44 0
-3 4 44 0
45 -44 0
45 -18 0
44 18 -45 0
2 -46 -47 0
-2 46 -47 0
2 46 47 0
-2 -46 47 0
-48 45 0
-48 47 0
-45 -47 48 0
-49 18 0
-49 10 0
-18 -10 49 0
-50 18 0
-50 1 0
-18 -1 50 0
-51 -50 0
-51 2 0
50 -2 51 0
52 -49 0
52 -51 0
49 51 -52 0
53 48 0
53 -52 0
-48 52 -53 0
-54 3 0
-54 20 0
-3 -20 54 0
55 -54 0
55 -26 0
54 26 -55 0
56 -18 0
56 3 0
18 -3 -56 0
57 -55 0
57 -56 0
55 56 -57 0
-58 52 0
-58 57 0
-52 -57 58 0
59 -9 0
59 -5 0
9 5 -59 0
-60 22 -61 0
60 -22 -61 0
-60 -22 61 0
60 22 61 0
62 -59 0
62 61 0
59 -61 -62 0
-63 58 0
-63 62 0
-58 -62 63 0
-64 -53 0
-64 -63 0
53 63 64 0
43 64 -65 0
-43 -64 -65 0
43 -64 65 0
-43 64 65 0
4 7 -66 0
-4 -7 -66 0
4 -7 66 0
-4 7 66 0
-67 66 0
-67 -1 0
-66 1 67 0
-22 5 -68 0
22 -5 -68 0
-22 -5 68 0
22 5 68 0
-68 38 -69 0
68 -38 -69 0
-68 -38 69 0
68 38 69 0
-70 2 0
-70 69 0
-2 -69 70 0
72 -70 0
72 71 0
70 -71 -72 0
67 72 -73 0
-67 -72 -73 0
67 -72 73 0
-67 72 73 0
51 74 0
-51 74 0
-73 -74 -75 0
73 74 -75 0
-73 74 75 0
73 -74 75 0
21 -7 -76 0
-21 7 -76 0
21 7 76 0
-21 -7 76 0
77 -75 0
77 -76 0
75 76 -77 0
-78 -46 0
-78 -17 0
46 17 78 0
80 78 0
80 -79 0
-78 79 -80 0
81 77 0
81 80 0
-77 -80 -81 0
-82 -13 0
-82 -17 0
13 17 82 0
83 21 0
83 -82 0
-21 82 -83 0
84 -10 0
84 -83 0
10 83 -84 0
86 56 0
86 85 0
-56 -85 -86 0
-87 60 0
-87 -45 0
-60 45 87 0
-89 -71 0
-89 -88 0
71 88 89 0
-87 -89 -90 0
87 89 -90 0
-87 89 90 0
87 -89 90 0
86 -90 -91 0
-86 90 -91 0
86 90 91 0
-86 -90 91 0
92 -84 0
92 -91 0
84 91 -92 0
-93 68 0
-93 1 0
-68 -1 93 0
94 -92 0
94 93 0
92 -93 -94 0
95 -81 0
95 -94 0
81 94 -95 0
-96 -26 0
-96 -18 0
26 18 96 0
-97 96 0
-97 38 0
-96 -38 97 0
39 25 -98 0
-39 -25 -98 0
39 -25 98 0
-39 25 98 0
99 46 0
99 -98 0
-46 98 -99 0
100 97 0
100 99 0
-97 -99 -100 0
-13 27 -101 0
13 -27 -101 0
-13 -27 101 0
13 27 101 0
-102 -47 0
-102 3 0
47 -3 102 0
-103 -50 0
-103 102 0
50 -102 103 0
-104 -103 0
-104 49 0
103 -49 104 0
-101 104 -105 0
101 -104 -105 0
-101 -104 105 0
101 104 105 0
106 55 0
106 14 0
-55 -14 -106 0
107 -105 0
107 106 0
105 -106 -107 0
-108 69 0
-108 -34 0
-69 34 108 0
-109 9 0
-109 -47 0
-9 47 109 0
110 70 0
110 -109 0
-70 109 -110 0
-111 44 0
-111 -13 0
-44 13 111 0
110 111 -112 0
-110 -111 -112 0
110 -111 112 0
-110 111 112 0
108 -112 -113 0
-108 112 -113 0
108 112 113 0
-108 -112 113 0
107 -113 -114 0
-107 113 -114 0
107 113 114 0
-107 -113 114 0
115 -100 0
115 114 0
100 -114 -115 0
95 -115 -116 0
-95 115 -116 0
95 115 116 0
-95 -115 116 0
117 -65 0
117 116 0
65 -116 -117 0
118 47 0
118 -71 0
-47 71 -118 0
-119 -117 0
-119 -118 0
117 118 119 0
83 58 0
-108 -21 71 -53 -45 0
71 -57 28 76 -7 0
93 -111 82 -69 -79 17 106 1 -98 0
-29 60 -47 39 -111 -91 61 -2 0
-39 22 52 0
-5 -22 26 -112 -38 101 -53 67 0
-85 -105 0
-84 94 -23 -76 24 -6 0
16 40 0
-57 -31 -92 -100 -111 -16 25 104 54 0
-60 -113 90 -41 -111 -21 -10 0
-31 -116 0
-3 35 52 -117 32 -81 0
-23 51 -64 -107 -30 15 53 58 78 0
-19 -97 -13 48 -44 66 111 -49 0
-98 -12 64 9 115 0
-51 -58 -65 -41 69 74 76 -5 28 -7 0
94 -109 21 4 73 -74 0
-39 -89 -17 -118 33 0
112 -102 58 77 -56 84 76 -116 0
100 -90 42 71 -57 -110 -15 6 -86 0
-6 -102 -90 69 -42 112 -106 -47 0
80 -27 13 -55 -11 101 3 0
-93 -5 -99 -115 49 -1 87 0
-84 -35 -53 5 18 65 1 17 15 0
72 118 -12 0
71 -84 -53 107 0
-7 87 0
10 -43 -111 0
-8 -58 -116 78 0
83 -75 24 -7 0
-101 61 109 -78 -65 31 118 0
-15 116 -41 52 3 -83 -99 0
-49 -27 25 41 46 0
7 48 0
-63 -64 -119 28 -80 39 89 0
-111 -16 0
-10 4 -53 3 -93 -28 0
-94 -59 -98 62 0
-22 -57 -64 0
-73 -87 0
-105 -68 7 36 -89 -54 -4 -25 92 0
63 105 -7 -6 43 70 -85 0
71 78 -98 -2 -100 0
63 100 59 17 95 -56 -52 60 87 -75 0
21 -98 -91 77 105 -18 27 49 -117 9 0
84 -79 40 13 52 -8 63 -62 -50 0
-80 -59 46 64 -17 15 25 -23 99 0
43 -98 74 0
99 34 -50 74 -32 -77 0
-109 53 -16 51 72 -52 -43 -68 0
55 -90 -37 109 0
36 1 77 119 80 94 -90 -41 0
69 111 113 -68 0
78 52 35 118 -31 -3 -50 -7 -75 0
9 -8 57 -58 101 -22 -79 108 92 0
11 112 0
67 55 -105 0
86 38 0
43 21 56 -2 -54 0
112 -105 0
82 -115 7 -98 86 -72 1 0
-60 24 -39 45 49 3 43 -64 -31 0
119 0
